NAME : KROA99B
TYPE : PDTSP
DIMENSION : 99
EDGE_WEIGHT_TYPE : EUC_2D
NODE_COORD_SECTION
1 1380 939
2 2848 96
3 3510 1671
4 457 334
5 3888 666
6 984 965
7 2721 1482
8 1286 525
9 2716 1432
10 738 1325
11 1251 1832
12 2728 1698
13 3815 169
14 3683 1533
15 1247 1945
16 123 862
17 1234 1946
18 252 1240
19 611 673
20 2576 1676
21 928 1700
22 53 857
23 1807 1711
24 274 1420
25 2574 946
26 178 24
27 2678 1825
28 1795 962
29 3384 1498
30 3520 1079
31 1256 61
32 1424 1728
33 3913 192
34 2573 1969
35 463 1670
36 3875 598
37 298 1513
38 3479 821
39 2542 236
40 3955 1743
41 1323 280
42 3447 1830
43 2936 337
44 1621 1830
45 3373 1646
46 1393 1368
47 3874 1318
48 938 955
49 3022 474
50 2482 1183
51 3854 923
52 376 825
53 2519 135
54 2945 1622
55 953 268
56 2628 1479
57 2097 981
58 890 1846
59 2139 1806
60 2421 1007
61 2290 1810
62 1115 1052
63 2588 302
64 327 265
65 241 341
66 1917 687
67 2991 792
68 2573 599
69 19 674
70 3911 1673
71 872 1559
72 2863 558
73 929 1766
74 839 620
75 3893 102
76 2178 1619
77 3822 899
78 378 1048
79 1178 100
80 2599 901
81 3416 143
82 2961 1605
83 611 1384
84 3113 885
85 2597 1830
86 2586 1286
87 161 906
88 1429 134
89 742 1025
90 1625 1651
91 1187 706
92 1787 1009
93 22 987
94 3640 43
95 3756 882
96 776 392
97 1724 1642
98 198 1810
99 3950 1558
PICKUP_AND_DELIVERY_SECTION
1 0 0 0 0 0 0
2 0 0 0 0 0 33
3 0 0 0 0 70 0
4 0 0 0 0 0 16
5 0 0 0 0 0 26
6 0 0 0 0 90 0
7 0 0 0 0 0 72
8 0 0 0 0 64 0
9 0 0 0 0 0 42
10 0 0 0 0 0 79
11 0 0 0 0 44 0
12 0 0 0 0 0 61
13 0 0 0 0 45 0
14 0 0 0 0 0 82
15 0 0 0 0 48 0
16 0 0 0 0 4 0
17 0 0 0 0 35 0
18 0 0 0 0 52 0
19 0 0 0 0 0 24
20 0 0 0 0 0 23
21 0 0 0 0 0 58
22 0 0 0 0 0 85
23 0 0 0 0 20 0
24 0 0 0 0 19 0
25 0 0 0 0 86 0
26 0 0 0 0 5 0
27 0 0 0 0 54 0
28 0 0 0 0 0 31
29 0 0 0 0 99 0
30 0 0 0 0 36 0
31 0 0 0 0 28 0
32 0 0 0 0 0 66
33 0 0 0 0 2 0
34 0 0 0 0 56 0
35 0 0 0 0 0 17
36 0 0 0 0 0 30
37 0 0 0 0 0 71
38 0 0 0 0 76 0
39 0 0 0 0 0 75
40 0 0 0 0 0 47
41 0 0 0 0 0 92
42 0 0 0 0 9 0
43 0 0 0 0 0 68
44 0 0 0 0 0 11
45 0 0 0 0 0 13
46 0 0 0 0 62 0
47 0 0 0 0 40 0
48 0 0 0 0 0 15
49 0 0 0 0 73 0
50 0 0 0 0 0 51
51 0 0 0 0 50 0
52 0 0 0 0 0 18
53 0 0 0 0 84 0
54 0 0 0 0 0 27
55 0 0 0 0 59 0
56 0 0 0 0 0 34
57 0 0 0 0 0 97
58 0 0 0 0 21 0
59 0 0 0 0 0 55
60 0 0 0 0 0 63
61 0 0 0 0 12 0
62 0 0 0 0 0 46
63 0 0 0 0 60 0
64 0 0 0 0 0 8
65 0 0 0 0 0 96
66 0 0 0 0 32 0
67 0 0 0 0 0 95
68 0 0 0 0 43 0
69 0 0 0 0 98 0
70 0 0 0 0 0 3
71 0 0 0 0 37 0
72 0 0 0 0 7 0
73 0 0 0 0 0 49
74 0 0 0 0 93 0
75 0 0 0 0 39 0
76 0 0 0 0 0 38
77 0 0 0 0 0 80
78 0 0 0 0 0 83
79 0 0 0 0 10 0
80 0 0 0 0 77 0
81 0 0 0 0 94 0
82 0 0 0 0 14 0
83 0 0 0 0 78 0
84 0 0 0 0 0 53
85 0 0 0 0 22 0
86 0 0 0 0 0 25
87 0 0 0 0 0 89
88 0 0 0 0 91 0
89 0 0 0 0 87 0
90 0 0 0 0 0 6
91 0 0 0 0 0 88
92 0 0 0 0 41 0
93 0 0 0 0 0 74
94 0 0 0 0 0 81
95 0 0 0 0 67 0
96 0 0 0 0 65 0
97 0 0 0 0 57 0
98 0 0 0 0 0 69
99 0 0 0 0 0 29
DEPOT_SECTION
1 
-1
EOF
